data/lp_files/pEFS/74_8.lp
\ Model foo
\ LP format - for model browsing. Use MPS format to capture full model detail.
Minimize
  z
Subject To
 allocateEach[1]: x[1,1] + x[2,1] + x[3,1] + x[4,1] = 1
 allocateEach[2]: x[1,2] + x[2,2] + x[3,2] + x[4,2] = 1
 allocateEach[3]: x[1,3] + x[2,3] + x[3,3] + x[4,3] = 1
 allocateEach[4]: x[1,4] + x[2,4] + x[3,4] + x[4,4] = 1
 allocateEach[5]: x[1,5] + x[2,5] + x[3,5] + x[4,5] = 1
 allocateEach[6]: x[1,6] + x[2,6] + x[3,6] + x[4,6] = 1
 allocateEach[7]: x[1,7] + x[2,7] + x[3,7] + x[4,7] = 1
 allocateEach[8]: x[1,8] + x[2,8] + x[3,8] + x[4,8] = 1
 allocateEach[9]: x[1,9] + x[2,9] + x[3,9] + x[4,9] = 1
 allocateEach[10]: x[1,10] + x[2,10] + x[3,10] + x[4,10] = 1
 allocateEach[11]: x[1,11] + x[2,11] + x[3,11] + x[4,11] = 1
 allocateEach[12]: x[1,12] + x[2,12] + x[3,12] + x[4,12] = 1
 allocateEach[13]: x[1,13] + x[2,13] + x[3,13] + x[4,13] = 1
 allocateEach[14]: x[1,14] + x[2,14] + x[3,14] + x[4,14] = 1
 allocateAllCash: cashProportion[1] + cashProportion[2] + cashProportion[3]
   + cashProportion[4] = 1
 findWorstP[1,2]: z + 0.0976645953633734 cashProportion[1]
   - 0.0976645953633734 cashProportion[2] + 0.114853564147327 x[1,1]
   + 0.0142590309230525 x[1,2] + 0.0206926861426147 x[1,3]
   + 0.0471964157093502 x[1,4] + 0.0440589405833018 x[1,5]
   + 0.0933185208697032 x[1,6] + 0.0717346452943977 x[1,7]
   + 0.0846752041800447 x[1,8] + 0.1112765983421435 x[1,9]
   + 0.1183328653571472 x[1,10] + 0.028981968674081 x[1,11]
   + 0.030776555613883 x[1,12] + 0.0947346575024721 x[1,13]
   + 0.0274437512971079 x[1,14] - 0.114853564147327 x[2,1]
   - 0.0142590309230525 x[2,2] - 0.0206926861426147 x[2,3]
   - 0.0471964157093502 x[2,4] - 0.0440589405833018 x[2,5]
   - 0.0933185208697032 x[2,6] - 0.0717346452943977 x[2,7]
   - 0.0846752041800447 x[2,8] - 0.1112765983421435 x[2,9]
   - 0.1183328653571472 x[2,10] - 0.028981968674081 x[2,11]
   - 0.030776555613883 x[2,12] - 0.0947346575024721 x[2,13]
   - 0.0274437512971079 x[2,14] >= 0
 findWorstP[1,3]: z + 0.0976645953633734 cashProportion[1]
   - 0.0976645953633734 cashProportion[3] + 0.114853564147327 x[1,1]
   + 0.0142590309230525 x[1,2] + 0.0206926861426147 x[1,3]
   + 0.0471964157093502 x[1,4] + 0.0440589405833018 x[1,5]
   + 0.0933185208697032 x[1,6] + 0.0717346452943977 x[1,7]
   + 0.0846752041800447 x[1,8] + 0.1112765983421435 x[1,9]
   + 0.1183328653571472 x[1,10] + 0.028981968674081 x[1,11]
   + 0.030776555613883 x[1,12] + 0.0947346575024721 x[1,13]
   + 0.0274437512971079 x[1,14] - 0.114853564147327 x[3,1]
   - 0.0142590309230525 x[3,2] - 0.0206926861426147 x[3,3]
   - 0.0471964157093502 x[3,4] - 0.0440589405833018 x[3,5]
   - 0.0933185208697032 x[3,6] - 0.0717346452943977 x[3,7]
   - 0.0846752041800447 x[3,8] - 0.1112765983421435 x[3,9]
   - 0.1183328653571472 x[3,10] - 0.028981968674081 x[3,11]
   - 0.030776555613883 x[3,12] - 0.0947346575024721 x[3,13]
   - 0.0274437512971079 x[3,14] >= 0
 findWorstP[1,4]: z + 0.0976645953633734 cashProportion[1]
   - 0.0976645953633734 cashProportion[4] + 0.114853564147327 x[1,1]
   + 0.0142590309230525 x[1,2] + 0.0206926861426147 x[1,3]
   + 0.0471964157093502 x[1,4] + 0.0440589405833018 x[1,5]
   + 0.0933185208697032 x[1,6] + 0.0717346452943977 x[1,7]
   + 0.0846752041800447 x[1,8] + 0.1112765983421435 x[1,9]
   + 0.1183328653571472 x[1,10] + 0.028981968674081 x[1,11]
   + 0.030776555613883 x[1,12] + 0.0947346575024721 x[1,13]
   + 0.0274437512971079 x[1,14] - 0.114853564147327 x[4,1]
   - 0.0142590309230525 x[4,2] - 0.0206926861426147 x[4,3]
   - 0.0471964157093502 x[4,4] - 0.0440589405833018 x[4,5]
   - 0.0933185208697032 x[4,6] - 0.0717346452943977 x[4,7]
   - 0.0846752041800447 x[4,8] - 0.1112765983421435 x[4,9]
   - 0.1183328653571472 x[4,10] - 0.028981968674081 x[4,11]
   - 0.030776555613883 x[4,12] - 0.0947346575024721 x[4,13]
   - 0.0274437512971079 x[4,14] >= 0
 findWorstP[2,1]: z - 0.1265782728394671 cashProportion[1]
   + 0.1265782728394671 cashProportion[2] - 0.00806936489351603 x[1,1]
   - 0.0839213948925667 x[1,2] - 0.0725609949052245 x[1,3]
   - 0.1304705547292807 x[1,4] - 0.0781304389101611 x[1,5]
   - 0.0829720578462707 x[1,6] - 0.0344134679282301 x[1,7]
   - 0.0792538210816113 x[1,8] - 0.1073067307996582 x[1,9]
   - 0.0276889971836334 x[1,10] - 0.0272459732286953 x[1,11]
   - 0.073146419417107 x[1,12] - 0.0197778551311667 x[1,13]
   - 0.048463656213411 x[1,14] + 0.00806936489351603 x[2,1]
   + 0.0839213948925667 x[2,2] + 0.0725609949052245 x[2,3]
   + 0.1304705547292807 x[2,4] + 0.0781304389101611 x[2,5]
   + 0.0829720578462707 x[2,6] + 0.0344134679282301 x[2,7]
   + 0.0792538210816113 x[2,8] + 0.1073067307996582 x[2,9]
   + 0.0276889971836334 x[2,10] + 0.0272459732286953 x[2,11]
   + 0.073146419417107 x[2,12] + 0.0197778551311667 x[2,13]
   + 0.048463656213411 x[2,14] >= 0
 findWorstP[2,3]: z + 0.1265782728394671 cashProportion[2]
   - 0.1265782728394671 cashProportion[3] + 0.00806936489351603 x[2,1]
   + 0.0839213948925667 x[2,2] + 0.0725609949052245 x[2,3]
   + 0.1304705547292807 x[2,4] + 0.0781304389101611 x[2,5]
   + 0.0829720578462707 x[2,6] + 0.0344134679282301 x[2,7]
   + 0.0792538210816113 x[2,8] + 0.1073067307996582 x[2,9]
   + 0.0276889971836334 x[2,10] + 0.0272459732286953 x[2,11]
   + 0.073146419417107 x[2,12] + 0.0197778551311667 x[2,13]
   + 0.048463656213411 x[2,14] - 0.00806936489351603 x[3,1]
   - 0.0839213948925667 x[3,2] - 0.0725609949052245 x[3,3]
   - 0.1304705547292807 x[3,4] - 0.0781304389101611 x[3,5]
   - 0.0829720578462707 x[3,6] - 0.0344134679282301 x[3,7]
   - 0.0792538210816113 x[3,8] - 0.1073067307996582 x[3,9]
   - 0.0276889971836334 x[3,10] - 0.0272459732286953 x[3,11]
   - 0.073146419417107 x[3,12] - 0.0197778551311667 x[3,13]
   - 0.048463656213411 x[3,14] >= 0
 findWorstP[2,4]: z + 0.1265782728394671 cashProportion[2]
   - 0.1265782728394671 cashProportion[4] + 0.00806936489351603 x[2,1]
   + 0.0839213948925667 x[2,2] + 0.0725609949052245 x[2,3]
   + 0.1304705547292807 x[2,4] + 0.0781304389101611 x[2,5]
   + 0.0829720578462707 x[2,6] + 0.0344134679282301 x[2,7]
   + 0.0792538210816113 x[2,8] + 0.1073067307996582 x[2,9]
   + 0.0276889971836334 x[2,10] + 0.0272459732286953 x[2,11]
   + 0.073146419417107 x[2,12] + 0.0197778551311667 x[2,13]
   + 0.048463656213411 x[2,14] - 0.00806936489351603 x[4,1]
   - 0.0839213948925667 x[4,2] - 0.0725609949052245 x[4,3]
   - 0.1304705547292807 x[4,4] - 0.0781304389101611 x[4,5]
   - 0.0829720578462707 x[4,6] - 0.0344134679282301 x[4,7]
   - 0.0792538210816113 x[4,8] - 0.1073067307996582 x[4,9]
   - 0.0276889971836334 x[4,10] - 0.0272459732286953 x[4,11]
   - 0.073146419417107 x[4,12] - 0.0197778551311667 x[4,13]
   - 0.048463656213411 x[4,14] >= 0
 findWorstP[3,1]: z - 0.0851716208159441 cashProportion[1]
   + 0.0851716208159441 cashProportion[3] - 0.0465782301337195 x[1,1]
   - 0.0662422280896005 x[1,2] - 0.090026403202453 x[1,3]
   - 0.0882484456179201 x[1,4] - 0.0496337620304914 x[1,5]
   - 0.0312260454816455 x[1,6] - 0.0956157908184993 x[1,7]
   - 0.0845967123754365 x[1,8] - 0.0394983391533941 x[1,9]
   - 0.0104335235499532 x[1,10] - 0.1063474150413082 x[1,11]
   - 0.102184652073929 x[1,12] - 0.0330891746869943 x[1,13]
   - 0.0711076569287114 x[1,14] + 0.0465782301337195 x[3,1]
   + 0.0662422280896005 x[3,2] + 0.090026403202453 x[3,3]
   + 0.0882484456179201 x[3,4] + 0.0496337620304914 x[3,5]
   + 0.0312260454816455 x[3,6] + 0.0956157908184993 x[3,7]
   + 0.0845967123754365 x[3,8] + 0.0394983391533941 x[3,9]
   + 0.0104335235499532 x[3,10] + 0.1063474150413082 x[3,11]
   + 0.102184652073929 x[3,12] + 0.0330891746869943 x[3,13]
   + 0.0711076569287114 x[3,14] >= 0
 findWorstP[3,2]: z - 0.0851716208159441 cashProportion[2]
   + 0.0851716208159441 cashProportion[3] - 0.0465782301337195 x[2,1]
   - 0.0662422280896005 x[2,2] - 0.090026403202453 x[2,3]
   - 0.0882484456179201 x[2,4] - 0.0496337620304914 x[2,5]
   - 0.0312260454816455 x[2,6] - 0.0956157908184993 x[2,7]
   - 0.0845967123754365 x[2,8] - 0.0394983391533941 x[2,9]
   - 0.0104335235499532 x[2,10] - 0.1063474150413082 x[2,11]
   - 0.102184652073929 x[2,12] - 0.0330891746869943 x[2,13]
   - 0.0711076569287114 x[2,14] + 0.0465782301337195 x[3,1]
   + 0.0662422280896005 x[3,2] + 0.090026403202453 x[3,3]
   + 0.0882484456179201 x[3,4] + 0.0496337620304914 x[3,5]
   + 0.0312260454816455 x[3,6] + 0.0956157908184993 x[3,7]
   + 0.0845967123754365 x[3,8] + 0.0394983391533941 x[3,9]
   + 0.0104335235499532 x[3,10] + 0.1063474150413082 x[3,11]
   + 0.102184652073929 x[3,12] + 0.0330891746869943 x[3,13]
   + 0.0711076569287114 x[3,14] >= 0
 findWorstP[3,4]: z + 0.0851716208159441 cashProportion[3]
   - 0.0851716208159441 cashProportion[4] + 0.0465782301337195 x[3,1]
   + 0.0662422280896005 x[3,2] + 0.090026403202453 x[3,3]
   + 0.0882484456179201 x[3,4] + 0.0496337620304914 x[3,5]
   + 0.0312260454816455 x[3,6] + 0.0956157908184993 x[3,7]
   + 0.0845967123754365 x[3,8] + 0.0394983391533941 x[3,9]
   + 0.0104335235499532 x[3,10] + 0.1063474150413082 x[3,11]
   + 0.102184652073929 x[3,12] + 0.0330891746869943 x[3,13]
   + 0.0711076569287114 x[3,14] - 0.0465782301337195 x[4,1]
   - 0.0662422280896005 x[4,2] - 0.090026403202453 x[4,3]
   - 0.0882484456179201 x[4,4] - 0.0496337620304914 x[4,5]
   - 0.0312260454816455 x[4,6] - 0.0956157908184993 x[4,7]
   - 0.0845967123754365 x[4,8] - 0.0394983391533941 x[4,9]
   - 0.0104335235499532 x[4,10] - 0.1063474150413082 x[4,11]
   - 0.102184652073929 x[4,12] - 0.0330891746869943 x[4,13]
   - 0.0711076569287114 x[4,14] >= 0
 findWorstP[4,1]: z - 0.1115029199827171 cashProportion[1]
   + 0.1115029199827171 cashProportion[4] - 0.0339665769997352 x[1,1]
   - 0.102986884469037 x[1,2] - 0.0229696015164397 x[1,3]
   - 0.1191129942715375 x[1,4] - 0.0707764784590297 x[1,5]
   - 0.0272345882057786 x[1,6] - 0.0593195534308055 x[1,7]
   - 0.070135336669129 x[1,8] - 0.0863729493916122 x[1,9]
   - 0.0850209764868217 x[1,10] - 0.00727556552887229 x[1,11]
   - 0.0647553207799629 x[1,12] - 0.0425523018384044 x[1,13]
   - 0.0960179519701172 x[1,14] + 0.0339665769997352 x[4,1]
   + 0.102986884469037 x[4,2] + 0.0229696015164397 x[4,3]
   + 0.1191129942715375 x[4,4] + 0.0707764784590297 x[4,5]
   + 0.0272345882057786 x[4,6] + 0.0593195534308055 x[4,7]
   + 0.070135336669129 x[4,8] + 0.0863729493916122 x[4,9]
   + 0.0850209764868217 x[4,10] + 0.00727556552887229 x[4,11]
   + 0.0647553207799629 x[4,12] + 0.0425523018384044 x[4,13]
   + 0.0960179519701172 x[4,14] >= 0
 findWorstP[4,2]: z - 0.1115029199827171 cashProportion[2]
   + 0.1115029199827171 cashProportion[4] - 0.0339665769997352 x[2,1]
   - 0.102986884469037 x[2,2] - 0.0229696015164397 x[2,3]
   - 0.1191129942715375 x[2,4] - 0.0707764784590297 x[2,5]
   - 0.0272345882057786 x[2,6] - 0.0593195534308055 x[2,7]
   - 0.070135336669129 x[2,8] - 0.0863729493916122 x[2,9]
   - 0.0850209764868217 x[2,10] - 0.00727556552887229 x[2,11]
   - 0.0647553207799629 x[2,12] - 0.0425523018384044 x[2,13]
   - 0.0960179519701172 x[2,14] + 0.0339665769997352 x[4,1]
   + 0.102986884469037 x[4,2] + 0.0229696015164397 x[4,3]
   + 0.1191129942715375 x[4,4] + 0.0707764784590297 x[4,5]
   + 0.0272345882057786 x[4,6] + 0.0593195534308055 x[4,7]
   + 0.070135336669129 x[4,8] + 0.0863729493916122 x[4,9]
   + 0.0850209764868217 x[4,10] + 0.00727556552887229 x[4,11]
   + 0.0647553207799629 x[4,12] + 0.0425523018384044 x[4,13]
   + 0.0960179519701172 x[4,14] >= 0
 findWorstP[4,3]: z - 0.1115029199827171 cashProportion[3]
   + 0.1115029199827171 cashProportion[4] - 0.0339665769997352 x[3,1]
   - 0.102986884469037 x[3,2] - 0.0229696015164397 x[3,3]
   - 0.1191129942715375 x[3,4] - 0.0707764784590297 x[3,5]
   - 0.0272345882057786 x[3,6] - 0.0593195534308055 x[3,7]
   - 0.070135336669129 x[3,8] - 0.0863729493916122 x[3,9]
   - 0.0850209764868217 x[3,10] - 0.00727556552887229 x[3,11]
   - 0.0647553207799629 x[3,12] - 0.0425523018384044 x[3,13]
   - 0.0960179519701172 x[3,14] + 0.0339665769997352 x[4,1]
   + 0.102986884469037 x[4,2] + 0.0229696015164397 x[4,3]
   + 0.1191129942715375 x[4,4] + 0.0707764784590297 x[4,5]
   + 0.0272345882057786 x[4,6] + 0.0593195534308055 x[4,7]
   + 0.070135336669129 x[4,8] + 0.0863729493916122 x[4,9]
   + 0.0850209764868217 x[4,10] + 0.00727556552887229 x[4,11]
   + 0.0647553207799629 x[4,12] + 0.0425523018384044 x[4,13]
   + 0.0960179519701172 x[4,14] >= 0
Bounds
 z <= 1
 -infinity <= cashProportion[1] <= 1
 -infinity <= cashProportion[2] <= 1
 -infinity <= cashProportion[3] <= 1
 -infinity <= cashProportion[4] <= 1
Binaries
 x[1,1] x[1,2] x[1,3] x[1,4] x[1,5] x[1,6] x[1,7] x[1,8] x[1,9] x[1,10]
 x[1,11] x[1,12] x[1,13] x[1,14] x[2,1] x[2,2] x[2,3] x[2,4] x[2,5] x[2,6]
 x[2,7] x[2,8] x[2,9] x[2,10] x[2,11] x[2,12] x[2,13] x[2,14] x[3,1] x[3,2]
 x[3,3] x[3,4] x[3,5] x[3,6] x[3,7] x[3,8] x[3,9] x[3,10] x[3,11] x[3,12]
 x[3,13] x[3,14] x[4,1] x[4,2] x[4,3] x[4,4] x[4,5] x[4,6] x[4,7] x[4,8]
 x[4,9] x[4,10] x[4,11] x[4,12] x[4,13] x[4,14]
End
