data/mps_files/q3/74_8.mps
NAME foo
ROWS
 N  OBJ
 E  allocateEach[1]
 E  allocateEach[2]
 E  allocateEach[3]
 E  allocateEach[4]
 E  allocateEach[5]
 E  allocateEach[6]
 E  allocateEach[7]
 E  allocateEach[8]
 E  allocateEach[9]
 E  allocateEach[10]
 E  allocateEach[11]
 E  allocateEach[12]
 E  allocateEach[13]
 E  allocateEach[14]
 E  allocateAllCash
 G  findWorstP[1,2]
 G  findWorstP[1,3]
 G  findWorstP[1,4]
 G  findWorstP[2,1]
 G  findWorstP[2,3]
 G  findWorstP[2,4]
 G  findWorstP[3,1]
 G  findWorstP[3,2]
 G  findWorstP[3,4]
 G  findWorstP[4,1]
 G  findWorstP[4,2]
 G  findWorstP[4,3]
COLUMNS
    z         OBJ       1
    z         findWorstP[1,2]  1
    z         findWorstP[1,3]  1
    z         findWorstP[1,4]  1
    z         findWorstP[2,1]  1
    z         findWorstP[2,3]  1
    z         findWorstP[2,4]  1
    z         findWorstP[3,1]  1
    z         findWorstP[3,2]  1
    z         findWorstP[3,4]  1
    z         findWorstP[4,1]  1
    z         findWorstP[4,2]  1
    z         findWorstP[4,3]  1
    cashProportion[1]  allocateAllCash  1
    cashProportion[1]  findWorstP[1,2]  9.7664595363373352e-02
    cashProportion[1]  findWorstP[1,3]  9.7664595363373352e-02
    cashProportion[1]  findWorstP[1,4]  9.7664595363373352e-02
    cashProportion[1]  findWorstP[2,1]  -1.2657827283946713e-01
    cashProportion[1]  findWorstP[3,1]  -8.5171620815944149e-02
    cashProportion[1]  findWorstP[4,1]  -1.1150291998271707e-01
    cashProportion[2]  allocateAllCash  1
    cashProportion[2]  findWorstP[1,2]  -9.7664595363373352e-02
    cashProportion[2]  findWorstP[2,1]  1.2657827283946713e-01
    cashProportion[2]  findWorstP[2,3]  1.2657827283946713e-01
    cashProportion[2]  findWorstP[2,4]  1.2657827283946713e-01
    cashProportion[2]  findWorstP[3,2]  -8.5171620815944149e-02
    cashProportion[2]  findWorstP[4,2]  -1.1150291998271707e-01
    cashProportion[3]  allocateAllCash  1
    cashProportion[3]  findWorstP[1,3]  -9.7664595363373352e-02
    cashProportion[3]  findWorstP[2,3]  -1.2657827283946713e-01
    cashProportion[3]  findWorstP[3,1]  8.5171620815944149e-02
    cashProportion[3]  findWorstP[3,2]  8.5171620815944149e-02
    cashProportion[3]  findWorstP[3,4]  8.5171620815944149e-02
    cashProportion[3]  findWorstP[4,3]  -1.1150291998271707e-01
    cashProportion[4]  allocateAllCash  1
    cashProportion[4]  findWorstP[1,4]  -9.7664595363373352e-02
    cashProportion[4]  findWorstP[2,4]  -1.2657827283946713e-01
    cashProportion[4]  findWorstP[3,4]  -8.5171620815944149e-02
    cashProportion[4]  findWorstP[4,1]  1.1150291998271707e-01
    cashProportion[4]  findWorstP[4,2]  1.1150291998271707e-01
    cashProportion[4]  findWorstP[4,3]  1.1150291998271707e-01
    MARKER    'MARKER'                 'INTORG'
    x[1,1]    allocateEach[1]  1
    x[1,1]    findWorstP[1,2]  1.1485356414732703e-01
    x[1,1]    findWorstP[1,3]  1.1485356414732703e-01
    x[1,1]    findWorstP[1,4]  1.1485356414732703e-01
    x[1,1]    findWorstP[2,1]  -8.0693648935160275e-03
    x[1,1]    findWorstP[3,1]  -4.6578230133719450e-02
    x[1,1]    findWorstP[4,1]  -3.3966576999735182e-02
    x[1,2]    allocateEach[2]  1
    x[1,2]    findWorstP[1,2]  1.4259030923052507e-02
    x[1,2]    findWorstP[1,3]  1.4259030923052507e-02
    x[1,2]    findWorstP[1,4]  1.4259030923052507e-02
    x[1,2]    findWorstP[2,1]  -8.3921394892566684e-02
    x[1,2]    findWorstP[3,1]  -6.6242228089600549e-02
    x[1,2]    findWorstP[4,1]  -1.0298688446903703e-01
    x[1,3]    allocateEach[3]  1
    x[1,3]    findWorstP[1,2]  2.0692686142614727e-02
    x[1,3]    findWorstP[1,3]  2.0692686142614727e-02
    x[1,3]    findWorstP[1,4]  2.0692686142614727e-02
    x[1,3]    findWorstP[2,1]  -7.2560994905224510e-02
    x[1,3]    findWorstP[3,1]  -9.0026403202452962e-02
    x[1,3]    findWorstP[4,1]  -2.2969601516439710e-02
    x[1,4]    allocateEach[4]  1
    x[1,4]    findWorstP[1,2]  4.7196415709350160e-02
    x[1,4]    findWorstP[1,3]  4.7196415709350160e-02
    x[1,4]    findWorstP[1,4]  4.7196415709350160e-02
    x[1,4]    findWorstP[2,1]  -1.3047055472928071e-01
    x[1,4]    findWorstP[3,1]  -8.8248445617920113e-02
    x[1,4]    findWorstP[4,1]  -1.1911299427153749e-01
    x[1,5]    allocateEach[5]  1
    x[1,5]    findWorstP[1,2]  4.4058940583301794e-02
    x[1,5]    findWorstP[1,3]  4.4058940583301794e-02
    x[1,5]    findWorstP[1,4]  4.4058940583301794e-02
    x[1,5]    findWorstP[2,1]  -7.8130438910161068e-02
    x[1,5]    findWorstP[3,1]  -4.9633762030491448e-02
    x[1,5]    findWorstP[4,1]  -7.0776478459029651e-02
    x[1,6]    allocateEach[6]  1
    x[1,6]    findWorstP[1,2]  9.3318520869703214e-02
    x[1,6]    findWorstP[1,3]  9.3318520869703214e-02
    x[1,6]    findWorstP[1,4]  9.3318520869703214e-02
    x[1,6]    findWorstP[2,1]  -8.2972057846270680e-02
    x[1,6]    findWorstP[3,1]  -3.1226045481645519e-02
    x[1,6]    findWorstP[4,1]  -2.7234588205778638e-02
    x[1,7]    allocateEach[7]  1
    x[1,7]    findWorstP[1,2]  7.1734645294397714e-02
    x[1,7]    findWorstP[1,3]  7.1734645294397714e-02
    x[1,7]    findWorstP[1,4]  7.1734645294397714e-02
    x[1,7]    findWorstP[2,1]  -3.4413467928230114e-02
    x[1,7]    findWorstP[3,1]  -9.5615790818499288e-02
    x[1,7]    findWorstP[4,1]  -5.9319553430805465e-02
    x[1,8]    allocateEach[8]  1
    x[1,8]    findWorstP[1,2]  8.4675204180044678e-02
    x[1,8]    findWorstP[1,3]  8.4675204180044678e-02
    x[1,8]    findWorstP[1,4]  8.4675204180044678e-02
    x[1,8]    findWorstP[2,1]  -7.9253821081611345e-02
    x[1,8]    findWorstP[3,1]  -0.0845967123754365
    x[1,8]    findWorstP[4,1]  -7.0135336669129023e-02
    x[1,9]    allocateEach[9]  1
    x[1,9]    findWorstP[1,2]  1.1127659834214348e-01
    x[1,9]    findWorstP[1,3]  1.1127659834214348e-01
    x[1,9]    findWorstP[1,4]  1.1127659834214348e-01
    x[1,9]    findWorstP[2,1]  -1.0730673079965823e-01
    x[1,9]    findWorstP[3,1]  -3.9498339153394096e-02
    x[1,9]    findWorstP[4,1]  -8.6372949391612192e-02
    x[1,10]   allocateEach[10]  1
    x[1,10]   findWorstP[1,2]  1.1833286535714722e-01
    x[1,10]   findWorstP[1,3]  1.1833286535714722e-01
    x[1,10]   findWorstP[1,4]  1.1833286535714722e-01
    x[1,10]   findWorstP[2,1]  -2.7688997183633424e-02
    x[1,10]   findWorstP[3,1]  -1.0433523549953158e-02
    x[1,10]   findWorstP[4,1]  -8.5020976486821748e-02
    x[1,11]   allocateEach[11]  1
    x[1,11]   findWorstP[1,2]  2.8981968674081034e-02
    x[1,11]   findWorstP[1,3]  2.8981968674081034e-02
    x[1,11]   findWorstP[1,4]  2.8981968674081034e-02
    x[1,11]   findWorstP[2,1]  -2.7245973228695292e-02
    x[1,11]   findWorstP[3,1]  -1.0634741504130825e-01
    x[1,11]   findWorstP[4,1]  -7.2755655288722874e-03
    x[1,12]   allocateEach[12]  1
    x[1,12]   findWorstP[1,2]  3.0776555613883018e-02
    x[1,12]   findWorstP[1,3]  3.0776555613883018e-02
    x[1,12]   findWorstP[1,4]  3.0776555613883018e-02
    x[1,12]   findWorstP[2,1]  -7.3146419417107048e-02
    x[1,12]   findWorstP[3,1]  -1.0218465207392897e-01
    x[1,12]   findWorstP[4,1]  -6.4755320779962919e-02
    x[1,13]   allocateEach[13]  1
    x[1,13]   findWorstP[1,2]  9.4734657502472133e-02
    x[1,13]   findWorstP[1,3]  9.4734657502472133e-02
    x[1,13]   findWorstP[1,4]  9.4734657502472133e-02
    x[1,13]   findWorstP[2,1]  -1.9777855131166734e-02
    x[1,13]   findWorstP[3,1]  -0.0330891746869943
    x[1,13]   findWorstP[4,1]  -4.2552301838404395e-02
    x[1,14]   allocateEach[14]  1
    x[1,14]   findWorstP[1,2]  2.7443751297107907e-02
    x[1,14]   findWorstP[1,3]  2.7443751297107907e-02
    x[1,14]   findWorstP[1,4]  2.7443751297107907e-02
    x[1,14]   findWorstP[2,1]  -4.8463656213410970e-02
    x[1,14]   findWorstP[3,1]  -7.1107656928711363e-02
    x[1,14]   findWorstP[4,1]  -9.6017951970117213e-02
    x[2,1]    allocateEach[1]  1
    x[2,1]    findWorstP[1,2]  -1.1485356414732703e-01
    x[2,1]    findWorstP[2,1]  8.0693648935160275e-03
    x[2,1]    findWorstP[2,3]  8.0693648935160275e-03
    x[2,1]    findWorstP[2,4]  8.0693648935160275e-03
    x[2,1]    findWorstP[3,2]  -4.6578230133719450e-02
    x[2,1]    findWorstP[4,2]  -3.3966576999735182e-02
    x[2,2]    allocateEach[2]  1
    x[2,2]    findWorstP[1,2]  -1.4259030923052507e-02
    x[2,2]    findWorstP[2,1]  8.3921394892566684e-02
    x[2,2]    findWorstP[2,3]  8.3921394892566684e-02
    x[2,2]    findWorstP[2,4]  8.3921394892566684e-02
    x[2,2]    findWorstP[3,2]  -6.6242228089600549e-02
    x[2,2]    findWorstP[4,2]  -1.0298688446903703e-01
    x[2,3]    allocateEach[3]  1
    x[2,3]    findWorstP[1,2]  -2.0692686142614727e-02
    x[2,3]    findWorstP[2,1]  7.2560994905224510e-02
    x[2,3]    findWorstP[2,3]  7.2560994905224510e-02
    x[2,3]    findWorstP[2,4]  7.2560994905224510e-02
    x[2,3]    findWorstP[3,2]  -9.0026403202452962e-02
    x[2,3]    findWorstP[4,2]  -2.2969601516439710e-02
    x[2,4]    allocateEach[4]  1
    x[2,4]    findWorstP[1,2]  -4.7196415709350160e-02
    x[2,4]    findWorstP[2,1]  1.3047055472928071e-01
    x[2,4]    findWorstP[2,3]  1.3047055472928071e-01
    x[2,4]    findWorstP[2,4]  1.3047055472928071e-01
    x[2,4]    findWorstP[3,2]  -8.8248445617920113e-02
    x[2,4]    findWorstP[4,2]  -1.1911299427153749e-01
    x[2,5]    allocateEach[5]  1
    x[2,5]    findWorstP[1,2]  -4.4058940583301794e-02
    x[2,5]    findWorstP[2,1]  7.8130438910161068e-02
    x[2,5]    findWorstP[2,3]  7.8130438910161068e-02
    x[2,5]    findWorstP[2,4]  7.8130438910161068e-02
    x[2,5]    findWorstP[3,2]  -4.9633762030491448e-02
    x[2,5]    findWorstP[4,2]  -7.0776478459029651e-02
    x[2,6]    allocateEach[6]  1
    x[2,6]    findWorstP[1,2]  -9.3318520869703214e-02
    x[2,6]    findWorstP[2,1]  8.2972057846270680e-02
    x[2,6]    findWorstP[2,3]  8.2972057846270680e-02
    x[2,6]    findWorstP[2,4]  8.2972057846270680e-02
    x[2,6]    findWorstP[3,2]  -3.1226045481645519e-02
    x[2,6]    findWorstP[4,2]  -2.7234588205778638e-02
    x[2,7]    allocateEach[7]  1
    x[2,7]    findWorstP[1,2]  -7.1734645294397714e-02
    x[2,7]    findWorstP[2,1]  3.4413467928230114e-02
    x[2,7]    findWorstP[2,3]  3.4413467928230114e-02
    x[2,7]    findWorstP[2,4]  3.4413467928230114e-02
    x[2,7]    findWorstP[3,2]  -9.5615790818499288e-02
    x[2,7]    findWorstP[4,2]  -5.9319553430805465e-02
    x[2,8]    allocateEach[8]  1
    x[2,8]    findWorstP[1,2]  -8.4675204180044678e-02
    x[2,8]    findWorstP[2,1]  7.9253821081611345e-02
    x[2,8]    findWorstP[2,3]  7.9253821081611345e-02
    x[2,8]    findWorstP[2,4]  7.9253821081611345e-02
    x[2,8]    findWorstP[3,2]  -0.0845967123754365
    x[2,8]    findWorstP[4,2]  -7.0135336669129023e-02
    x[2,9]    allocateEach[9]  1
    x[2,9]    findWorstP[1,2]  -1.1127659834214348e-01
    x[2,9]    findWorstP[2,1]  1.0730673079965823e-01
    x[2,9]    findWorstP[2,3]  1.0730673079965823e-01
    x[2,9]    findWorstP[2,4]  1.0730673079965823e-01
    x[2,9]    findWorstP[3,2]  -3.9498339153394096e-02
    x[2,9]    findWorstP[4,2]  -8.6372949391612192e-02
    x[2,10]   allocateEach[10]  1
    x[2,10]   findWorstP[1,2]  -1.1833286535714722e-01
    x[2,10]   findWorstP[2,1]  2.7688997183633424e-02
    x[2,10]   findWorstP[2,3]  2.7688997183633424e-02
    x[2,10]   findWorstP[2,4]  2.7688997183633424e-02
    x[2,10]   findWorstP[3,2]  -1.0433523549953158e-02
    x[2,10]   findWorstP[4,2]  -8.5020976486821748e-02
    x[2,11]   allocateEach[11]  1
    x[2,11]   findWorstP[1,2]  -2.8981968674081034e-02
    x[2,11]   findWorstP[2,1]  2.7245973228695292e-02
    x[2,11]   findWorstP[2,3]  2.7245973228695292e-02
    x[2,11]   findWorstP[2,4]  2.7245973228695292e-02
    x[2,11]   findWorstP[3,2]  -1.0634741504130825e-01
    x[2,11]   findWorstP[4,2]  -7.2755655288722874e-03
    x[2,12]   allocateEach[12]  1
    x[2,12]   findWorstP[1,2]  -3.0776555613883018e-02
    x[2,12]   findWorstP[2,1]  7.3146419417107048e-02
    x[2,12]   findWorstP[2,3]  7.3146419417107048e-02
    x[2,12]   findWorstP[2,4]  7.3146419417107048e-02
    x[2,12]   findWorstP[3,2]  -1.0218465207392897e-01
    x[2,12]   findWorstP[4,2]  -6.4755320779962919e-02
    x[2,13]   allocateEach[13]  1
    x[2,13]   findWorstP[1,2]  -9.4734657502472133e-02
    x[2,13]   findWorstP[2,1]  1.9777855131166734e-02
    x[2,13]   findWorstP[2,3]  1.9777855131166734e-02
    x[2,13]   findWorstP[2,4]  1.9777855131166734e-02
    x[2,13]   findWorstP[3,2]  -0.0330891746869943
    x[2,13]   findWorstP[4,2]  -4.2552301838404395e-02
    x[2,14]   allocateEach[14]  1
    x[2,14]   findWorstP[1,2]  -2.7443751297107907e-02
    x[2,14]   findWorstP[2,1]  4.8463656213410970e-02
    x[2,14]   findWorstP[2,3]  4.8463656213410970e-02
    x[2,14]   findWorstP[2,4]  4.8463656213410970e-02
    x[2,14]   findWorstP[3,2]  -7.1107656928711363e-02
    x[2,14]   findWorstP[4,2]  -9.6017951970117213e-02
    x[3,1]    allocateEach[1]  1
    x[3,1]    findWorstP[1,3]  -1.1485356414732703e-01
    x[3,1]    findWorstP[2,3]  -8.0693648935160275e-03
    x[3,1]    findWorstP[3,1]  4.6578230133719450e-02
    x[3,1]    findWorstP[3,2]  4.6578230133719450e-02
    x[3,1]    findWorstP[3,4]  4.6578230133719450e-02
    x[3,1]    findWorstP[4,3]  -3.3966576999735182e-02
    x[3,2]    allocateEach[2]  1
    x[3,2]    findWorstP[1,3]  -1.4259030923052507e-02
    x[3,2]    findWorstP[2,3]  -8.3921394892566684e-02
    x[3,2]    findWorstP[3,1]  6.6242228089600549e-02
    x[3,2]    findWorstP[3,2]  6.6242228089600549e-02
    x[3,2]    findWorstP[3,4]  6.6242228089600549e-02
    x[3,2]    findWorstP[4,3]  -1.0298688446903703e-01
    x[3,3]    allocateEach[3]  1
    x[3,3]    findWorstP[1,3]  -2.0692686142614727e-02
    x[3,3]    findWorstP[2,3]  -7.2560994905224510e-02
    x[3,3]    findWorstP[3,1]  9.0026403202452962e-02
    x[3,3]    findWorstP[3,2]  9.0026403202452962e-02
    x[3,3]    findWorstP[3,4]  9.0026403202452962e-02
    x[3,3]    findWorstP[4,3]  -2.2969601516439710e-02
    x[3,4]    allocateEach[4]  1
    x[3,4]    findWorstP[1,3]  -4.7196415709350160e-02
    x[3,4]    findWorstP[2,3]  -1.3047055472928071e-01
    x[3,4]    findWorstP[3,1]  8.8248445617920113e-02
    x[3,4]    findWorstP[3,2]  8.8248445617920113e-02
    x[3,4]    findWorstP[3,4]  8.8248445617920113e-02
    x[3,4]    findWorstP[4,3]  -1.1911299427153749e-01
    x[3,5]    allocateEach[5]  1
    x[3,5]    findWorstP[1,3]  -4.4058940583301794e-02
    x[3,5]    findWorstP[2,3]  -7.8130438910161068e-02
    x[3,5]    findWorstP[3,1]  4.9633762030491448e-02
    x[3,5]    findWorstP[3,2]  4.9633762030491448e-02
    x[3,5]    findWorstP[3,4]  4.9633762030491448e-02
    x[3,5]    findWorstP[4,3]  -7.0776478459029651e-02
    x[3,6]    allocateEach[6]  1
    x[3,6]    findWorstP[1,3]  -9.3318520869703214e-02
    x[3,6]    findWorstP[2,3]  -8.2972057846270680e-02
    x[3,6]    findWorstP[3,1]  3.1226045481645519e-02
    x[3,6]    findWorstP[3,2]  3.1226045481645519e-02
    x[3,6]    findWorstP[3,4]  3.1226045481645519e-02
    x[3,6]    findWorstP[4,3]  -2.7234588205778638e-02
    x[3,7]    allocateEach[7]  1
    x[3,7]    findWorstP[1,3]  -7.1734645294397714e-02
    x[3,7]    findWorstP[2,3]  -3.4413467928230114e-02
    x[3,7]    findWorstP[3,1]  9.5615790818499288e-02
    x[3,7]    findWorstP[3,2]  9.5615790818499288e-02
    x[3,7]    findWorstP[3,4]  9.5615790818499288e-02
    x[3,7]    findWorstP[4,3]  -5.9319553430805465e-02
    x[3,8]    allocateEach[8]  1
    x[3,8]    findWorstP[1,3]  -8.4675204180044678e-02
    x[3,8]    findWorstP[2,3]  -7.9253821081611345e-02
    x[3,8]    findWorstP[3,1]  0.0845967123754365
    x[3,8]    findWorstP[3,2]  0.0845967123754365
    x[3,8]    findWorstP[3,4]  0.0845967123754365
    x[3,8]    findWorstP[4,3]  -7.0135336669129023e-02
    x[3,9]    allocateEach[9]  1
    x[3,9]    findWorstP[1,3]  -1.1127659834214348e-01
    x[3,9]    findWorstP[2,3]  -1.0730673079965823e-01
    x[3,9]    findWorstP[3,1]  3.9498339153394096e-02
    x[3,9]    findWorstP[3,2]  3.9498339153394096e-02
    x[3,9]    findWorstP[3,4]  3.9498339153394096e-02
    x[3,9]    findWorstP[4,3]  -8.6372949391612192e-02
    x[3,10]   allocateEach[10]  1
    x[3,10]   findWorstP[1,3]  -1.1833286535714722e-01
    x[3,10]   findWorstP[2,3]  -2.7688997183633424e-02
    x[3,10]   findWorstP[3,1]  1.0433523549953158e-02
    x[3,10]   findWorstP[3,2]  1.0433523549953158e-02
    x[3,10]   findWorstP[3,4]  1.0433523549953158e-02
    x[3,10]   findWorstP[4,3]  -8.5020976486821748e-02
    x[3,11]   allocateEach[11]  1
    x[3,11]   findWorstP[1,3]  -2.8981968674081034e-02
    x[3,11]   findWorstP[2,3]  -2.7245973228695292e-02
    x[3,11]   findWorstP[3,1]  1.0634741504130825e-01
    x[3,11]   findWorstP[3,2]  1.0634741504130825e-01
    x[3,11]   findWorstP[3,4]  1.0634741504130825e-01
    x[3,11]   findWorstP[4,3]  -7.2755655288722874e-03
    x[3,12]   allocateEach[12]  1
    x[3,12]   findWorstP[1,3]  -3.0776555613883018e-02
    x[3,12]   findWorstP[2,3]  -7.3146419417107048e-02
    x[3,12]   findWorstP[3,1]  1.0218465207392897e-01
    x[3,12]   findWorstP[3,2]  1.0218465207392897e-01
    x[3,12]   findWorstP[3,4]  1.0218465207392897e-01
    x[3,12]   findWorstP[4,3]  -6.4755320779962919e-02
    x[3,13]   allocateEach[13]  1
    x[3,13]   findWorstP[1,3]  -9.4734657502472133e-02
    x[3,13]   findWorstP[2,3]  -1.9777855131166734e-02
    x[3,13]   findWorstP[3,1]  0.0330891746869943
    x[3,13]   findWorstP[3,2]  0.0330891746869943
    x[3,13]   findWorstP[3,4]  0.0330891746869943
    x[3,13]   findWorstP[4,3]  -4.2552301838404395e-02
    x[3,14]   allocateEach[14]  1
    x[3,14]   findWorstP[1,3]  -2.7443751297107907e-02
    x[3,14]   findWorstP[2,3]  -4.8463656213410970e-02
    x[3,14]   findWorstP[3,1]  7.1107656928711363e-02
    x[3,14]   findWorstP[3,2]  7.1107656928711363e-02
    x[3,14]   findWorstP[3,4]  7.1107656928711363e-02
    x[3,14]   findWorstP[4,3]  -9.6017951970117213e-02
    x[4,1]    allocateEach[1]  1
    x[4,1]    findWorstP[1,4]  -1.1485356414732703e-01
    x[4,1]    findWorstP[2,4]  -8.0693648935160275e-03
    x[4,1]    findWorstP[3,4]  -4.6578230133719450e-02
    x[4,1]    findWorstP[4,1]  3.3966576999735182e-02
    x[4,1]    findWorstP[4,2]  3.3966576999735182e-02
    x[4,1]    findWorstP[4,3]  3.3966576999735182e-02
    x[4,2]    allocateEach[2]  1
    x[4,2]    findWorstP[1,4]  -1.4259030923052507e-02
    x[4,2]    findWorstP[2,4]  -8.3921394892566684e-02
    x[4,2]    findWorstP[3,4]  -6.6242228089600549e-02
    x[4,2]    findWorstP[4,1]  1.0298688446903703e-01
    x[4,2]    findWorstP[4,2]  1.0298688446903703e-01
    x[4,2]    findWorstP[4,3]  1.0298688446903703e-01
    x[4,3]    allocateEach[3]  1
    x[4,3]    findWorstP[1,4]  -2.0692686142614727e-02
    x[4,3]    findWorstP[2,4]  -7.2560994905224510e-02
    x[4,3]    findWorstP[3,4]  -9.0026403202452962e-02
    x[4,3]    findWorstP[4,1]  2.2969601516439710e-02
    x[4,3]    findWorstP[4,2]  2.2969601516439710e-02
    x[4,3]    findWorstP[4,3]  2.2969601516439710e-02
    x[4,4]    allocateEach[4]  1
    x[4,4]    findWorstP[1,4]  -4.7196415709350160e-02
    x[4,4]    findWorstP[2,4]  -1.3047055472928071e-01
    x[4,4]    findWorstP[3,4]  -8.8248445617920113e-02
    x[4,4]    findWorstP[4,1]  1.1911299427153749e-01
    x[4,4]    findWorstP[4,2]  1.1911299427153749e-01
    x[4,4]    findWorstP[4,3]  1.1911299427153749e-01
    x[4,5]    allocateEach[5]  1
    x[4,5]    findWorstP[1,4]  -4.4058940583301794e-02
    x[4,5]    findWorstP[2,4]  -7.8130438910161068e-02
    x[4,5]    findWorstP[3,4]  -4.9633762030491448e-02
    x[4,5]    findWorstP[4,1]  7.0776478459029651e-02
    x[4,5]    findWorstP[4,2]  7.0776478459029651e-02
    x[4,5]    findWorstP[4,3]  7.0776478459029651e-02
    x[4,6]    allocateEach[6]  1
    x[4,6]    findWorstP[1,4]  -9.3318520869703214e-02
    x[4,6]    findWorstP[2,4]  -8.2972057846270680e-02
    x[4,6]    findWorstP[3,4]  -3.1226045481645519e-02
    x[4,6]    findWorstP[4,1]  2.7234588205778638e-02
    x[4,6]    findWorstP[4,2]  2.7234588205778638e-02
    x[4,6]    findWorstP[4,3]  2.7234588205778638e-02
    x[4,7]    allocateEach[7]  1
    x[4,7]    findWorstP[1,4]  -7.1734645294397714e-02
    x[4,7]    findWorstP[2,4]  -3.4413467928230114e-02
    x[4,7]    findWorstP[3,4]  -9.5615790818499288e-02
    x[4,7]    findWorstP[4,1]  5.9319553430805465e-02
    x[4,7]    findWorstP[4,2]  5.9319553430805465e-02
    x[4,7]    findWorstP[4,3]  5.9319553430805465e-02
    x[4,8]    allocateEach[8]  1
    x[4,8]    findWorstP[1,4]  -8.4675204180044678e-02
    x[4,8]    findWorstP[2,4]  -7.9253821081611345e-02
    x[4,8]    findWorstP[3,4]  -0.0845967123754365
    x[4,8]    findWorstP[4,1]  7.0135336669129023e-02
    x[4,8]    findWorstP[4,2]  7.0135336669129023e-02
    x[4,8]    findWorstP[4,3]  7.0135336669129023e-02
    x[4,9]    allocateEach[9]  1
    x[4,9]    findWorstP[1,4]  -1.1127659834214348e-01
    x[4,9]    findWorstP[2,4]  -1.0730673079965823e-01
    x[4,9]    findWorstP[3,4]  -3.9498339153394096e-02
    x[4,9]    findWorstP[4,1]  8.6372949391612192e-02
    x[4,9]    findWorstP[4,2]  8.6372949391612192e-02
    x[4,9]    findWorstP[4,3]  8.6372949391612192e-02
    x[4,10]   allocateEach[10]  1
    x[4,10]   findWorstP[1,4]  -1.1833286535714722e-01
    x[4,10]   findWorstP[2,4]  -2.7688997183633424e-02
    x[4,10]   findWorstP[3,4]  -1.0433523549953158e-02
    x[4,10]   findWorstP[4,1]  8.5020976486821748e-02
    x[4,10]   findWorstP[4,2]  8.5020976486821748e-02
    x[4,10]   findWorstP[4,3]  8.5020976486821748e-02
    x[4,11]   allocateEach[11]  1
    x[4,11]   findWorstP[1,4]  -2.8981968674081034e-02
    x[4,11]   findWorstP[2,4]  -2.7245973228695292e-02
    x[4,11]   findWorstP[3,4]  -1.0634741504130825e-01
    x[4,11]   findWorstP[4,1]  7.2755655288722874e-03
    x[4,11]   findWorstP[4,2]  7.2755655288722874e-03
    x[4,11]   findWorstP[4,3]  7.2755655288722874e-03
    x[4,12]   allocateEach[12]  1
    x[4,12]   findWorstP[1,4]  -3.0776555613883018e-02
    x[4,12]   findWorstP[2,4]  -7.3146419417107048e-02
    x[4,12]   findWorstP[3,4]  -1.0218465207392897e-01
    x[4,12]   findWorstP[4,1]  6.4755320779962919e-02
    x[4,12]   findWorstP[4,2]  6.4755320779962919e-02
    x[4,12]   findWorstP[4,3]  6.4755320779962919e-02
    x[4,13]   allocateEach[13]  1
    x[4,13]   findWorstP[1,4]  -9.4734657502472133e-02
    x[4,13]   findWorstP[2,4]  -1.9777855131166734e-02
    x[4,13]   findWorstP[3,4]  -0.0330891746869943
    x[4,13]   findWorstP[4,1]  4.2552301838404395e-02
    x[4,13]   findWorstP[4,2]  4.2552301838404395e-02
    x[4,13]   findWorstP[4,3]  4.2552301838404395e-02
    x[4,14]   allocateEach[14]  1
    x[4,14]   findWorstP[1,4]  -2.7443751297107907e-02
    x[4,14]   findWorstP[2,4]  -4.8463656213410970e-02
    x[4,14]   findWorstP[3,4]  -7.1107656928711363e-02
    x[4,14]   findWorstP[4,1]  9.6017951970117213e-02
    x[4,14]   findWorstP[4,2]  9.6017951970117213e-02
    x[4,14]   findWorstP[4,3]  9.6017951970117213e-02
    MARKER    'MARKER'                 'INTEND'
RHS
    RHS1      allocateEach[1]  1
    RHS1      allocateEach[2]  1
    RHS1      allocateEach[3]  1
    RHS1      allocateEach[4]  1
    RHS1      allocateEach[5]  1
    RHS1      allocateEach[6]  1
    RHS1      allocateEach[7]  1
    RHS1      allocateEach[8]  1
    RHS1      allocateEach[9]  1
    RHS1      allocateEach[10]  1
    RHS1      allocateEach[11]  1
    RHS1      allocateEach[12]  1
    RHS1      allocateEach[13]  1
    RHS1      allocateEach[14]  1
    RHS1      allocateAllCash  1
BOUNDS
 UP BND1      z         1
 MI BND1      cashProportion[1]
 UP BND1      cashProportion[1]  1
 MI BND1      cashProportion[2]
 UP BND1      cashProportion[2]  1
 MI BND1      cashProportion[3]
 UP BND1      cashProportion[3]  1
 MI BND1      cashProportion[4]
 UP BND1      cashProportion[4]  1
 BV BND1      x[1,1]  
 BV BND1      x[1,2]  
 BV BND1      x[1,3]  
 BV BND1      x[1,4]  
 BV BND1      x[1,5]  
 BV BND1      x[1,6]  
 BV BND1      x[1,7]  
 BV BND1      x[1,8]  
 BV BND1      x[1,9]  
 BV BND1      x[1,10] 
 BV BND1      x[1,11] 
 BV BND1      x[1,12] 
 BV BND1      x[1,13] 
 BV BND1      x[1,14] 
 BV BND1      x[2,1]  
 BV BND1      x[2,2]  
 BV BND1      x[2,3]  
 BV BND1      x[2,4]  
 BV BND1      x[2,5]  
 BV BND1      x[2,6]  
 BV BND1      x[2,7]  
 BV BND1      x[2,8]  
 BV BND1      x[2,9]  
 BV BND1      x[2,10] 
 BV BND1      x[2,11] 
 BV BND1      x[2,12] 
 BV BND1      x[2,13] 
 BV BND1      x[2,14] 
 BV BND1      x[3,1]  
 BV BND1      x[3,2]  
 BV BND1      x[3,3]  
 BV BND1      x[3,4]  
 BV BND1      x[3,5]  
 BV BND1      x[3,6]  
 BV BND1      x[3,7]  
 BV BND1      x[3,8]  
 BV BND1      x[3,9]  
 BV BND1      x[3,10] 
 BV BND1      x[3,11] 
 BV BND1      x[3,12] 
 BV BND1      x[3,13] 
 BV BND1      x[3,14] 
 BV BND1      x[4,1]  
 BV BND1      x[4,2]  
 BV BND1      x[4,3]  
 BV BND1      x[4,4]  
 BV BND1      x[4,5]  
 BV BND1      x[4,6]  
 BV BND1      x[4,7]  
 BV BND1      x[4,8]  
 BV BND1      x[4,9]  
 BV BND1      x[4,10] 
 BV BND1      x[4,11] 
 BV BND1      x[4,12] 
 BV BND1      x[4,13] 
 BV BND1      x[4,14] 
ENDATA
